8 35 18 33 6 23 0 34 1 45 10 11 3 36 52 15 22 26 20 29 56 50 57 4 7 25 14 48 21 31 13 39 41 37 40 24 28 30 43 32 2 12 42 55 44 17 46 47 27 19 49 51 5 53 54 38 58 9 16 59
8 35 18 33 6 23 0 34 1 45 10 11 3 36 52 15 22 26 20 29 56 50 57 4 7 25 14 48 21 31 13 39 41 37 40 24 28 30 43 32 2 12 42 55 44 17 46 47 27 19 49 51 5 53 54 38 58 9 16 59
8 35 18 33 6 23 0 34 1 45 10 11 3 36 52 15 22 26 20 29 56 50 57 4 7 25 14 48 21 31 13 39 41 37 40 24 28 30 43 32 2 12 42 55 44 17 46 47 27 19 49 51 5 53 54 38 58 9 16 59
8 35 18 33 6 23 0 34 1 45 10 11 3 36 52 15 22 26 20 29 56 50 57 4 7 25 14 48 21 31 13 39 41 37 40 24 28 30 43 32 2 12 42 55 44 17 46 47 27 19 49 51 5 53 54 38 58 9 16 59
8 35 18 33 6 23 0 34 1 45 10 11 3 36 52 15 22 26 20 29 56 50 57 4 7 25 14 48 21 31 13 39 41 37 40 24 28 30 43 32 2 12 42 55 44 17 46 47 27 19 49 51 5 53 54 38 58 9 16 59
